c description: Random 3-CNF over 15 variables and 45 clauses
p cnf 15 45
-3 5 -12 0
-7 -13 -14 0
-7 -8 -15 0
-6 -7 14 0
-1 10 15 0
-4 5 6 0
-1 3 12 0
-2 -4 -12 0
-2 3 15 0
-1 -2 6 0
-9 12 15 0
-3 -12 13 0
3 -5 -11 0
1 6 15 0
-3 6 -10 0
6 -8 -12 0
1 -11 12 0
2 5 13 0
6 14 -15 0
-7 9 -12 0
-7 -11 -12 0
4 5 -13 0
6 9 -11 0
-1 5 7 0
-3 -5 14 0
-2 10 -13 0
-8 -10 14 0
-5 8 -12 0
6 -9 10 0
5 -8 14 0
-5 14 -15 0
-6 -8 -9 0
-10 11 13 0
1 5 -8 0
3 4 15 0
5 -10 -11 0
10 -11 -15 0
-3 6 -11 0
7 -9 -13 0
4 5 15 0
-2 3 6 0
1 -8 10 0
2 11 15 0
3 7 9 0
-4 5 -8 0